peakDumbCharging = 25900; 
Machine = anon_enum(16); 
machineSpeed = [3700,3700,3700,3700,3700,3700,3700,3700,3700,3700,3700,3700,3700,3700,3700,3700]; 
machineLoad = [3700,3700,3700,3700,3700,3700,3700,3700,3700,3700,3700,3700,3700,3700,3700,3700]; 
Car = anon_enum(38); 
demandCar = [2680,2080,13320,5120,3360,7560,10520,8720,3720,7800,9480,5880,8360,13240,16920,1960,5480,4880,4320,9360,2000,4280,19160,5520,5200,4960,3120,5120,7680,4760,15920,17680,13800,7680,31480,32440,8920,32880]; 
arrivalCar = [75,74,71,71,71,67,67,67,67,67,65,65,62,60,58,57,54,54,53,50,49,48,48,47,46,46,45,44,43,43,39,38,35,34,33,31,31,25]; 
departureCar = [77,76,78,75,73,72,72,71,71,72,69,68,66,65,64,59,57,56,56,55,51,51,57,53,50,48,48,46,48,46,46,46,45,39,50,62,34,50]; 
